100
649 702 958 197 66 825 334 373 815 184 910 492 72 918 573 79 839 775 741 658 993 13 975 643 253 613 338 651 705 525 99 392 303 750 932 776 531 171 708 266 998 173 969 16 780 347 575 416 308 438 816 353 361 782 178 358 517 518 170 765 490 92 339 58 344 115 255 556 690 300 464 514 586 907 217 774 555 895 686 4 58 798 297 615 98 563 411 461 4 896 844 743 621 227 192 838 330 384 881 345 
649 702 958 197 66 825 334 373 815 184 910 492 72 918 573 79 839 775 741 658 993 13 975 643 253 613 338 651 705 525 99 392 303 750 932 776 531 171 708 266 998 173 969 16 780 347 575 416 308 438 816 353 361 782 178 358 517 518 170 765 490 92 339 58 344 115 255 556 690 300 464 514 586 907 217 774 555 895 686 4 58 798 297 615 98 563 411 461 4 896 844 743 621 227 192 838 330 384 881 345 
24793
